<?xml version = "1.0" encoding="UTF-8" standalone="yes"?>
<CPLEXSolution version="1.2">
 <header
   problemName="IloCplex"
   solutionName="p0"
   solutionIndex="-1"
   objectiveValue="702804.99999999977"
   solutionTypeValue="3"
   solutionTypeString="primal"
   solutionStatusValue="127"
   solutionStatusString="integer feasible solution"
   solutionMethodString="mip"
   primalFeasible="0"
   dualFeasible="0"
   writeLevel="3"/>
 <quality
   epInt="1.0000000000000001e-05"
   epRHS="9.9999999999999995e-07"
   maxIntInfeas="7.3441253078954105e-13"
   maxPrimalInfeas="9.269918166410207e-10"
   maxX="1461.0000000002578"
   maxSlack="117.000000000103"/>
 <variables>
  <variable name="x1" index="0" value="1461.0000000000002"/>
  <variable name="w0_2" index="3" value="1461.0000000000002"/>
  <variable name="w1_1" index="6" value="1461.0000000002578"/>
  <variable name="w2_0" index="9" value="1461.0000000000002"/>
  <variable name="w2_1" index="10" value="1461.0000000000002"/>
  <variable name="w3_0" index="13" value="-2.3174795416025518e-10"/>
  <variable name="w3_1" index="14" value="2.3174795416025518e-10"/>
  <variable name="w3_2" index="15" value="2.3174795416025518e-10"/>
  <variable name="w3_3" index="16" value="-2.3174795416025518e-10"/>
  <variable name="w4_0" index="17" value="1461.0000000000002"/>
  <variable name="w4_2" index="19" value="1461.0000000000002"/>
  <variable name="w5_0" index="21" value="1461.0000000000002"/>
  <variable name="w5_1" index="22" value="1461.0000000000002"/>
  <variable name="w6_0" index="25" value="-2.3174795416025518e-10"/>
  <variable name="w6_2" index="27" value="1461.0000000000002"/>
  <variable name="w8_1" index="34" value="1461.0000000000002"/>
  <variable name="w8_2" index="35" value="1461.0000000000002"/>
  <variable name="w9_0" index="37" value="1461.0000000002578"/>
  <variable name="w9_1" index="38" value="1461.0000000000002"/>
  <variable name="w10_1" index="42" value="1461.0000000000002"/>
  <variable name="w12_1" index="50" value="1461.0000000000002"/>
  <variable name="w13_0" index="53" value="1461.0000000000002"/>
  <variable name="w13_1" index="54" value="1461.0000000000002"/>
  <variable name="w14_0" index="57" value="-9.269918166410207e-10"/>
  <variable name="w14_1" index="58" value="1461.0000000000002"/>
  <variable name="w14_2" index="59" value="-2.3174795416025518e-10"/>
  <variable name="w15_0" index="61" value="1461.0000000000002"/>
  <variable name="w15_3" index="64" value="1461.0000000000002"/>
  <variable name="w16_0" index="65" value="1461.0000000000002"/>
  <variable name="w16_1" index="66" value="1461.0000000000002"/>
  <variable name="w16_2" index="67" value="1461.0000000000002"/>
  <variable name="w17_0" index="69" value="1461.0000000000002"/>
  <variable name="w18_0" index="73" value="1461.0000000000002"/>
  <variable name="w18_2" index="75" value="1461.0000000000002"/>
  <variable name="w19_0" index="77" value="1461.0000000000002"/>
  <variable name="w19_2" index="79" value="1461.0000000000002"/>
  <variable name="w20_0" index="81" value="1461.0000000000002"/>
  <variable name="w20_1" index="82" value="1461.0000000000002"/>
  <variable name="w20_2" index="83" value="1461.0000000000002"/>
  <variable name="w21_0" index="85" value="1461.0000000000002"/>
  <variable name="w21_1" index="86" value="1461.0000000000002"/>
  <variable name="w22_1" index="90" value="1461.0000000000002"/>
  <variable name="w23_0" index="93" value="1461.0000000000002"/>
  <variable name="w23_1" index="94" value="1461.0000000000002"/>
  <variable name="w24_0" index="97" value="1461.0000000000002"/>
  <variable name="w25_3" index="104" value="1461.0000000000002"/>
  <variable name="w26_0" index="105" value="1461.0000000000002"/>
  <variable name="w26_2" index="107" value="1461.0000000000002"/>
  <variable name="w27_0" index="109" value="1461.0000000000002"/>
  <variable name="w27_1" index="110" value="1461.0000000000002"/>
  <variable name="w28_2" index="115" value="1461.0000000000002"/>
  <variable name="w29_0" index="117" value="1461.0000000000002"/>
  <variable name="w30_0" index="121" value="1461.0000000000002"/>
  <variable name="w30_1" index="122" value="1461.0000000000002"/>
  <variable name="w30_2" index="123" value="1461.0000000000002"/>
  <variable name="w31_0" index="125" value="1461.0000000000002"/>
  <variable name="w31_2" index="127" value="1461.0000000000002"/>
  <variable name="w32_3" index="132" value="1461.0000000000002"/>
  <variable name="w33_0" index="133" value="1461.0000000000002"/>
  <variable name="w34_3" index="140" value="1461.0000000000002"/>
  <variable name="w35_0" index="141" value="1461.0000000000002"/>
  <variable name="w36_0" index="145" value="1461.0000000000002"/>
  <variable name="w36_2" index="147" value="1461.0000000000002"/>
  <variable name="w39_1" index="158" value="1461.0000000000002"/>
  <variable name="w39_2" index="159" value="1461.0000000000002"/>
  <variable name="w40_0" index="161" value="1461.0000000000002"/>
  <variable name="w40_2" index="163" value="1461.0000000000002"/>
  <variable name="w41_1" index="166" value="1461.0000000002578"/>
  <variable name="w41_2" index="167" value="-2.3174795416025518e-10"/>
  <variable name="w42_1" index="170" value="1461.0000000000002"/>
  <variable name="w42_2" index="171" value="1461.0000000000002"/>
  <variable name="w43_0" index="173" value="1461.0000000000002"/>
  <variable name="w44_3" index="180" value="1461.0000000000002"/>
  <variable name="w46_1" index="186" value="1461.0000000000002"/>
  <variable name="w48_0" index="193" value="1460.9999999994852"/>
  <variable name="w50_0" index="201" value="1461.0000000000002"/>
  <variable name="w51_0" index="205" value="1461.0000000000002"/>
  <variable name="w51_2" index="207" value="1461.0000000000002"/>
  <variable name="w52_0" index="209" value="1461.0000000000002"/>
  <variable name="w52_1" index="210" value="1461.0000000000002"/>
  <variable name="w53_0" index="213" value="-4.6349590832051035e-10"/>
  <variable name="w53_1" index="214" value="1461.0000000000002"/>
  <variable name="w54_0" index="217" value="1461.0000000000002"/>
  <variable name="w55_2" index="223" value="1461.0000000000002"/>
  <variable name="w56_0" index="225" value="2.3174795416025533e-10"/>
  <variable name="w56_1" index="226" value="1460.9999999997426"/>
  <variable name="w57_0" index="229" value="1461.0000000000002"/>
  <variable name="w57_3" index="232" value="1461.0000000000002"/>
  <variable name="w58_1" index="234" value="1461.0000000000002"/>
  <variable name="w58_2" index="235" value="1461.0000000000002"/>
  <variable name="w60_0" index="241" value="1461.0000000002578"/>
  <variable name="w60_1" index="242" value="-2.3174795416025518e-10"/>
  <variable name="w60_3" index="244" value="1461.0000000002578"/>
  <variable name="w61_1" index="246" value="1461.0000000000002"/>
  <variable name="w61_2" index="247" value="1461.0000000000002"/>
  <variable name="w62_0" index="249" value="1461.0000000000002"/>
  <variable name="w62_1" index="250" value="1461.0000000000002"/>
  <variable name="w63_0" index="253" value="1461.0000000000002"/>
  <variable name="w63_3" index="256" value="1461.0000000000002"/>
  <variable name="w64_1" index="258" value="1.0428657937211483e-09"/>
  <variable name="w65_2" index="263" value="1461.0000000000002"/>
  <variable name="w66_0" index="265" value="1461.0000000000002"/>
  <variable name="w66_1" index="266" value="1461.0000000000002"/>
  <variable name="w67_0" index="269" value="1461.0000000000002"/>
  <variable name="w67_2" index="271" value="1461.0000000000002"/>
  <variable name="w68_0" index="273" value="1460.9999999992276"/>
  <variable name="w68_1" index="274" value="-2.3174795416025518e-10"/>
  <variable name="w68_2" index="275" value="1461.0000000000002"/>
  <variable name="w69_0" index="277" value="1461.0000000000002"/>
  <variable name="w69_1" index="278" value="1461.0000000000002"/>
  <variable name="w72_0" index="289" value="1461.0000000000002"/>
  <variable name="w72_2" index="291" value="1461.0000000000002"/>
  <variable name="w74_1" index="298" value="1461.0000000000002"/>
  <variable name="w74_2" index="299" value="1461.0000000000002"/>
  <variable name="w75_0" index="301" value="1461.0000000000002"/>
  <variable name="w75_2" index="303" value="1461.0000000000002"/>
  <variable name="w76_0" index="305" value="1461.0000000000002"/>
  <variable name="w77_3" index="312" value="1461.0000000000002"/>
  <variable name="w78_1" index="314" value="1461.0000000000002"/>
  <variable name="w79_3" index="320" value="1461.0000000000002"/>
  <variable name="w80_0" index="321" value="1461.0000000000002"/>
  <variable name="w80_1" index="322" value="1461.0000000000002"/>
  <variable name="w80_2" index="323" value="1461.0000000000002"/>
  <variable name="w81_3" index="328" value="1461.0000000000002"/>
  <variable name="w82_0" index="329" value="1461.0000000000002"/>
  <variable name="w82_1" index="330" value="1461.0000000000002"/>
  <variable name="w82_2" index="331" value="1461.0000000000002"/>
  <variable name="w83_1" index="334" value="1461.0000000000002"/>
  <variable name="w83_2" index="335" value="1461.0000000000002"/>
  <variable name="w84_1" index="338" value="1461.0000000000002"/>
  <variable name="w85_0" index="341" value="1461.0000000000002"/>
  <variable name="w85_1" index="342" value="1461.0000000000002"/>
  <variable name="w86_0" index="345" value="1461.0000000000002"/>
  <variable name="w86_1" index="346" value="1461.0000000000002"/>
  <variable name="w87_3" index="352" value="1461.0000000000002"/>
  <variable name="w88_3" index="356" value="1461.0000000000002"/>
  <variable name="w91_0" index="365" value="4.6349590832051035e-10"/>
  <variable name="w92_3" index="372" value="1461.0000000000002"/>
  <variable name="w93_0" index="373" value="1461.0000000002578"/>
  <variable name="w94_1" index="378" value="1461.0000000000002"/>
  <variable name="w94_2" index="379" value="1461.0000000000002"/>
  <variable name="w95_3" index="384" value="1461.0000000000002"/>
  <variable name="w96_0" index="385" value="1461.0000000000002"/>
  <variable name="w96_2" index="387" value="1461.0000000000002"/>
  <variable name="w97_0" index="389" value="1461.0000000000002"/>
  <variable name="w97_2" index="391" value="1461.0000000000002"/>
  <variable name="w98_0" index="393" value="1461.0000000000002"/>
  <variable name="w98_1" index="394" value="1461.0000000000002"/>
  <variable name="w99_0" index="397" value="1461.0000000000002"/>
  <variable name="w99_1" index="398" value="1461.0000000000002"/>
  <variable name="w99_2" index="399" value="1461.0000000000002"/>
  <variable name="x0_50" index="451" value="1"/>
  <variable name="x1_60" index="561" value="1.6320278461989801e-13"/>
  <variable name="x1_69" index="570" value="1"/>
  <variable name="x1_77" index="578" value="1.6320278461989801e-13"/>
  <variable name="x1_87" index="588" value="-3.2640556923979602e-13"/>
  <variable name="x2_61" index="662" value="1"/>
  <variable name="x3_1" index="702" value="-1.6320278461989801e-13"/>
  <variable name="x3_29" index="730" value="1.6320278461989801e-13"/>
  <variable name="x3_98" index="799" value="1"/>
  <variable name="x4_31" index="832" value="1"/>
  <variable name="x5_56" index="957" value="1"/>
  <variable name="x6_29" index="1030" value="-1.6320278461989801e-13"/>
  <variable name="x6_43" index="1044" value="1.6320278461989801e-13"/>
  <variable name="x6_44" index="1045" value="1"/>
  <variable name="x7_87" index="1188" value="1"/>
  <variable name="x8_22" index="1223" value="1"/>
  <variable name="x9_52" index="1353" value="1.6320278461989801e-13"/>
  <variable name="x9_59" index="1360" value="1"/>
  <variable name="x9_60" index="1361" value="-1.6320278461989801e-13"/>
  <variable name="x10_68" index="1469" value="1"/>
  <variable name="x11_92" index="1593" value="1"/>
  <variable name="x12_67" index="1668" value="1"/>
  <variable name="x13_53" index="1754" value="1"/>
  <variable name="x14_3" index="1804" value="-1.6320278461989801e-13"/>
  <variable name="x14_64" index="1865" value="1"/>
  <variable name="x14_77" index="1878" value="1.6320278461989801e-13"/>
  <variable name="x15_2" index="1903" value="1"/>
  <variable name="x16_17" index="2018" value="1"/>
  <variable name="x17_78" index="2179" value="0.99999999999967359"/>
  <variable name="x17_79" index="2180" value="3.2640556923979602e-13"/>
  <variable name="x18_36" index="2237" value="1"/>
  <variable name="x19_32" index="2333" value="1"/>
  <variable name="x20_21" index="2422" value="1"/>
  <variable name="x21_60" index="2561" value="1"/>
  <variable name="x22_62" index="2663" value="1"/>
  <variable name="x23_47" index="2748" value="1"/>
  <variable name="x24_83" index="2884" value="1"/>
  <variable name="x25_8" index="2909" value="1"/>
  <variable name="x25_38" index="2939" value="1.6320278461989801e-13"/>
  <variable name="x25_43" index="2944" value="-1.6320278461989801e-13"/>
  <variable name="x26_42" index="3043" value="1"/>
  <variable name="x27_49" index="3150" value="1"/>
  <variable name="x28_45" index="3246" value="1"/>
  <variable name="x29_70" index="3371" value="1"/>
  <variable name="x30_15" index="3416" value="1"/>
  <variable name="x31_33" index="3534" value="1"/>
  <variable name="x32_6" index="3607" value="1"/>
  <variable name="x33_81" index="3782" value="1"/>
  <variable name="x34_13" index="3814" value="1"/>
  <variable name="x35_82" index="3983" value="1"/>
  <variable name="x36_37" index="4038" value="1"/>
  <variable name="x37_88" index="4189" value="1"/>
  <variable name="x38_95" index="4296" value="1"/>
  <variable name="x39_16" index="4317" value="1"/>
  <variable name="x40_40" index="4441" value="1"/>
  <variable name="x41_52" index="4553" value="-1.6320278461989801e-13"/>
  <variable name="x41_74" index="4575" value="1.0000000000001632"/>
  <variable name="x42_26" index="4627" value="1"/>
  <variable name="x43_78" index="4779" value="3.2640556923979602e-13"/>
  <variable name="x43_80" index="4781" value="0.99999999999967359"/>
  <variable name="x44_10" index="4811" value="1"/>
  <variable name="x45_93" index="4994" value="1"/>
  <variable name="x46_73" index="5074" value="1"/>
  <variable name="x47_97" index="5198" value="1"/>
  <variable name="x48_77" index="5278" value="0.99999999999967359"/>
  <variable name="x48_85" index="5286" value="3.2640556923979602e-13"/>
  <variable name="x49_89" index="5390" value="1"/>
  <variable name="x50_75" index="5476" value="1"/>
  <variable name="x51_39" index="5540" value="1"/>
  <variable name="x52_46" index="5647" value="1"/>
  <variable name="x53_65" index="5766" value="0.9999999999998368"/>
  <variable name="x53_66" index="5767" value="1.6320278461989809e-13"/>
  <variable name="x53_79" index="5780" value="-3.2640556923979602e-13"/>
  <variable name="x53_87" index="5788" value="3.2640556923979602e-13"/>
  <variable name="x54_71" index="5872" value="1"/>
  <variable name="x55_51" index="5952" value="1"/>
  <variable name="x56_66" index="6067" value="0.9999999999998368"/>
  <variable name="x56_79" index="6080" value="1.6320278461989809e-13"/>
  <variable name="x57_1" index="6102" value="1"/>
  <variable name="x58_23" index="6224" value="1"/>
  <variable name="x59_0" index="6301" value="1.6320278461989801e-13"/>
  <variable name="x59_2" index="6303" value="-1.6320278461989801e-13"/>
  <variable name="x59_94" index="6395" value="1"/>
  <variable name="x60_2" index="6403" value="1.6320278461989801e-13"/>
  <variable name="x60_3" index="6404" value="1"/>
  <variable name="x60_74" index="6475" value="-1.6320278461989801e-13"/>
  <variable name="x61_24" index="6525" value="1"/>
  <variable name="x62_54" index="6655" value="1"/>
  <variable name="x63_0" index="6701" value="1"/>
  <variable name="x64_3" index="6804" value="1.6320278461989801e-13"/>
  <variable name="x64_96" index="6897" value="-1.6320278461989801e-13"/>
  <variable name="x64_99" index="6900" value="1"/>
  <variable name="x65_43" index="6944" value="1"/>
  <variable name="x66_48" index="7049" value="1"/>
  <variable name="x67_30" index="7131" value="1"/>
  <variable name="x68_38" index="7239" value="0.9999999999998368"/>
  <variable name="x68_96" index="7297" value="1.6320278461989801e-13"/>
  <variable name="x69_52" index="7353" value="1"/>
  <variable name="x70_0" index="7401" value="-1.6320278461989801e-13"/>
  <variable name="x70_1" index="7402" value="1.6320278461989801e-13"/>
  <variable name="x70_96" index="7497" value="1"/>
  <variable name="x71_86" index="7587" value="1"/>
  <variable name="x72_29" index="7630" value="1"/>
  <variable name="x73_84" index="7785" value="1"/>
  <variable name="x74_28" index="7829" value="1"/>
  <variable name="x75_41" index="7942" value="1"/>
  <variable name="x76_76" index="8077" value="1"/>
  <variable name="x77_14" index="8115" value="1"/>
  <variable name="x78_63" index="8264" value="1"/>
  <variable name="x79_7" index="8308" value="1"/>
  <variable name="x80_20" index="8421" value="1"/>
  <variable name="x81_12" index="8513" value="1"/>
  <variable name="x82_19" index="8620" value="1"/>
  <variable name="x83_25" index="8726" value="1"/>
  <variable name="x84_72" index="8873" value="1"/>
  <variable name="x85_55" index="8956" value="1"/>
  <variable name="x86_57" index="9058" value="1"/>
  <variable name="x87_4" index="9105" value="1"/>
  <variable name="x88_11" index="9212" value="1"/>
  <variable name="x89_90" index="9391" value="1"/>
  <variable name="x90_91" index="9492" value="1"/>
  <variable name="x91_80" index="9581" value="3.2640556923979602e-13"/>
  <variable name="x91_85" index="9586" value="0.99999999999967359"/>
  <variable name="x92_5" index="9606" value="1"/>
  <variable name="x93_65" index="9766" value="1.6320278461989809e-13"/>
  <variable name="x93_79" index="9780" value="0.9999999999998368"/>
  <variable name="x94_27" index="9828" value="1"/>
  <variable name="x95_9" index="9910" value="1"/>
  <variable name="x96_35" index="10036" value="1"/>
  <variable name="x97_34" index="10135" value="1"/>
  <variable name="x98_58" index="10259" value="1"/>
  <variable name="x99_18" index="10319" value="1"/>
  <variable name="v0_2" index="10403" value="1"/>
  <variable name="v1_1" index="10406" value="1.0000000000001632"/>
  <variable name="v2_0" index="10409" value="1"/>
  <variable name="v2_1" index="10410" value="1"/>
  <variable name="v3_0" index="10413" value="-1.6320278461989801e-13"/>
  <variable name="v3_1" index="10414" value="1.6320278461989801e-13"/>
  <variable name="v3_2" index="10415" value="1.6320278461989801e-13"/>
  <variable name="v3_3" index="10416" value="-1.6320278461989801e-13"/>
  <variable name="v4_0" index="10417" value="1"/>
  <variable name="v4_2" index="10419" value="1"/>
  <variable name="v5_0" index="10421" value="1"/>
  <variable name="v5_1" index="10422" value="1"/>
  <variable name="v6_0" index="10425" value="-1.6320278461989801e-13"/>
  <variable name="v6_2" index="10427" value="1"/>
  <variable name="v8_1" index="10434" value="1"/>
  <variable name="v8_2" index="10435" value="1"/>
  <variable name="v9_0" index="10437" value="1.0000000000001632"/>
  <variable name="v9_1" index="10438" value="1"/>
  <variable name="v10_1" index="10442" value="1"/>
  <variable name="v12_1" index="10450" value="1"/>
  <variable name="v13_0" index="10453" value="1"/>
  <variable name="v13_1" index="10454" value="1"/>
  <variable name="v14_0" index="10457" value="-6.5281113847959205e-13"/>
  <variable name="v14_1" index="10458" value="1"/>
  <variable name="v14_2" index="10459" value="-1.6320278461989801e-13"/>
  <variable name="v15_0" index="10461" value="1"/>
  <variable name="v15_3" index="10464" value="1"/>
  <variable name="v16_0" index="10465" value="1"/>
  <variable name="v16_1" index="10466" value="1"/>
  <variable name="v16_2" index="10467" value="1"/>
  <variable name="v17_0" index="10469" value="1"/>
  <variable name="v18_0" index="10473" value="1"/>
  <variable name="v18_2" index="10475" value="1"/>
  <variable name="v19_0" index="10477" value="1"/>
  <variable name="v19_2" index="10479" value="1"/>
  <variable name="v20_0" index="10481" value="1"/>
  <variable name="v20_1" index="10482" value="1"/>
  <variable name="v20_2" index="10483" value="1"/>
  <variable name="v21_0" index="10485" value="1"/>
  <variable name="v21_1" index="10486" value="1"/>
  <variable name="v22_1" index="10490" value="1"/>
  <variable name="v23_0" index="10493" value="1"/>
  <variable name="v23_1" index="10494" value="1"/>
  <variable name="v24_0" index="10497" value="1"/>
  <variable name="v25_3" index="10504" value="1"/>
  <variable name="v26_0" index="10505" value="1"/>
  <variable name="v26_2" index="10507" value="1"/>
  <variable name="v27_0" index="10509" value="1"/>
  <variable name="v27_1" index="10510" value="1"/>
  <variable name="v28_2" index="10515" value="1"/>
  <variable name="v29_0" index="10517" value="1"/>
  <variable name="v30_0" index="10521" value="1"/>
  <variable name="v30_1" index="10522" value="1"/>
  <variable name="v30_2" index="10523" value="1"/>
  <variable name="v31_0" index="10525" value="1"/>
  <variable name="v31_2" index="10527" value="1"/>
  <variable name="v32_3" index="10532" value="1"/>
  <variable name="v33_0" index="10533" value="1"/>
  <variable name="v34_3" index="10540" value="1"/>
  <variable name="v35_0" index="10541" value="1"/>
  <variable name="v36_0" index="10545" value="1"/>
  <variable name="v36_2" index="10547" value="1"/>
  <variable name="v39_1" index="10558" value="1"/>
  <variable name="v39_2" index="10559" value="1"/>
  <variable name="v40_0" index="10561" value="1"/>
  <variable name="v40_2" index="10563" value="1"/>
  <variable name="v41_1" index="10566" value="1.0000000000001632"/>
  <variable name="v41_2" index="10567" value="-1.6320278461989801e-13"/>
  <variable name="v42_1" index="10570" value="1"/>
  <variable name="v42_2" index="10571" value="1"/>
  <variable name="v43_0" index="10573" value="1"/>
  <variable name="v44_3" index="10580" value="1"/>
  <variable name="v46_1" index="10586" value="1"/>
  <variable name="v48_0" index="10593" value="0.99999999999967359"/>
  <variable name="v50_0" index="10601" value="1"/>
  <variable name="v51_0" index="10605" value="1"/>
  <variable name="v51_2" index="10607" value="1"/>
  <variable name="v52_0" index="10609" value="1"/>
  <variable name="v52_1" index="10610" value="1"/>
  <variable name="v53_0" index="10613" value="-3.2640556923979602e-13"/>
  <variable name="v53_1" index="10614" value="1"/>
  <variable name="v54_0" index="10617" value="1"/>
  <variable name="v55_2" index="10623" value="1"/>
  <variable name="v56_0" index="10625" value="1.6320278461989811e-13"/>
  <variable name="v56_1" index="10626" value="0.9999999999998368"/>
  <variable name="v57_0" index="10629" value="1"/>
  <variable name="v57_3" index="10632" value="1"/>
  <variable name="v58_1" index="10634" value="1"/>
  <variable name="v58_2" index="10635" value="1"/>
  <variable name="v60_0" index="10641" value="1.0000000000001632"/>
  <variable name="v60_1" index="10642" value="-1.6320278461989801e-13"/>
  <variable name="v60_3" index="10644" value="1.0000000000001632"/>
  <variable name="v61_1" index="10646" value="1"/>
  <variable name="v61_2" index="10647" value="1"/>
  <variable name="v62_0" index="10649" value="1"/>
  <variable name="v62_1" index="10650" value="1"/>
  <variable name="v63_0" index="10653" value="1"/>
  <variable name="v63_3" index="10656" value="1"/>
  <variable name="v64_1" index="10658" value="7.3441253078954105e-13"/>
  <variable name="v65_2" index="10663" value="1"/>
  <variable name="v66_0" index="10665" value="1"/>
  <variable name="v66_1" index="10666" value="1"/>
  <variable name="v67_0" index="10669" value="1"/>
  <variable name="v67_2" index="10671" value="1"/>
  <variable name="v68_0" index="10673" value="0.99999999999951039"/>
  <variable name="v68_1" index="10674" value="-1.6320278461989801e-13"/>
  <variable name="v68_2" index="10675" value="1"/>
  <variable name="v69_0" index="10677" value="1"/>
  <variable name="v69_1" index="10678" value="1"/>
  <variable name="v72_0" index="10689" value="1"/>
  <variable name="v72_2" index="10691" value="1"/>
  <variable name="v74_1" index="10698" value="1"/>
  <variable name="v74_2" index="10699" value="1"/>
  <variable name="v75_0" index="10701" value="1"/>
  <variable name="v75_2" index="10703" value="1"/>
  <variable name="v76_0" index="10705" value="1"/>
  <variable name="v77_3" index="10712" value="1"/>
  <variable name="v78_1" index="10714" value="1"/>
  <variable name="v79_3" index="10720" value="1"/>
  <variable name="v80_0" index="10721" value="1"/>
  <variable name="v80_1" index="10722" value="1"/>
  <variable name="v80_2" index="10723" value="1"/>
  <variable name="v81_3" index="10728" value="1"/>
  <variable name="v82_0" index="10729" value="1"/>
  <variable name="v82_1" index="10730" value="1"/>
  <variable name="v82_2" index="10731" value="1"/>
  <variable name="v83_1" index="10734" value="1"/>
  <variable name="v83_2" index="10735" value="1"/>
  <variable name="v84_1" index="10738" value="1"/>
  <variable name="v85_0" index="10741" value="1"/>
  <variable name="v85_1" index="10742" value="1"/>
  <variable name="v86_0" index="10745" value="1"/>
  <variable name="v86_1" index="10746" value="1"/>
  <variable name="v87_3" index="10752" value="1"/>
  <variable name="v88_3" index="10756" value="1"/>
  <variable name="v91_0" index="10765" value="3.2640556923979602e-13"/>
  <variable name="v92_3" index="10772" value="1"/>
  <variable name="v93_0" index="10773" value="1.0000000000001632"/>
  <variable name="v94_1" index="10778" value="1"/>
  <variable name="v94_2" index="10779" value="1"/>
  <variable name="v95_3" index="10784" value="1"/>
  <variable name="v96_0" index="10785" value="1"/>
  <variable name="v96_2" index="10787" value="1"/>
  <variable name="v97_0" index="10789" value="1"/>
  <variable name="v97_2" index="10791" value="1"/>
  <variable name="v98_0" index="10793" value="1"/>
  <variable name="v98_1" index="10794" value="1"/>
  <variable name="v99_0" index="10797" value="1"/>
  <variable name="v99_1" index="10798" value="1"/>
  <variable name="v99_2" index="10799" value="1"/>
 </variables>
</CPLEXSolution>
